data/dat/R203.dat
/* Cplex Data generated on 2017-12-16 */

k = 6;

b = 3;

AtomicConstraints = {
	 <5, 6>,
	 <5, 4>,
	 <4, 6>,
	 }; 

SoftAtomicConstraints = {
	 <2, 1>,
	 <3, 2>,
	 }; 

DisjunctiveConstraints = {
	 <2, 3, 2, 1>,
	 }; 

DirectSuccessors = {
	 }; 

