data/dzn/R203.dzn
k = 6;
b = 3;
AtomicConstraints =  [|
5, 6|
	5, 4|
	4, 6|];
DisjunctiveConstraints =  [|2, 3, 2, 1|];
SoftAtomicConstraints =  [|
2, 1|
3, 2|];
DirectSuccessors =  [];
